Traveling Salesman Problem/TSP_generados/Aleatorio1621103222_5.tsp
NAME: Aleatorio1621103222_5.tsp
COMMENT: Randomly generated scenario
TYPE: TSP
DIMENSION: 5
EDGE_WEIGHT_TYPE: ATT
NODE_COORD_SECTION
1 10.26 15.01
2 7.11 11.1
3 11.56 45.32
4 30.85 26.63
5 23.51 13.82
